squfl030-100.py
Ipopt 3.12.8: 
==> Warning: Treating 30 binary and 0 integer variables as continous.


******************************************************************************
This program contains Ipopt, a library for large-scale nonlinear optimization.
 Ipopt is released as open source code under the Eclipse Public License (EPL).
         For more information visit http://projects.coin-or.org/Ipopt
******************************************************************************

This is Ipopt version 3.12.8, running with linear solver ma27.

Number of nonzeros in equality constraint Jacobian...:     3000
Number of nonzeros in inequality constraint Jacobian.:     6000
Number of nonzeros in Lagrangian Hessian.............:     3000

Total number of variables............................:     3030
                     variables with only lower bounds:     3000
                variables with lower and upper bounds:       30
                     variables with only upper bounds:        0
Total number of equality constraints.................:      100
Total number of inequality constraints...............:     3000
        inequality constraints with only lower bounds:        0
   inequality constraints with lower and upper bounds:        0
        inequality constraints with only upper bounds:     3000

iter    objective    inf_pr   inf_du lg(mu)  ||d||  lg(rg) alpha_du alpha_pr  ls
   0  2.2011744e+01 7.00e-01 1.43e+00  -1.0 0.00e+00    -  0.00e+00 0.00e+00   0
   1  2.7469783e+02 7.77e-16 5.92e+00  -1.0 1.36e-01    -  2.14e-01 1.00e+00f  1
   2  3.2634446e+02 4.44e-16 7.45e-02  -1.0 1.27e-01    -  9.53e-01 1.00e+00f  1
   3  1.8242037e+02 4.44e-16 6.71e-01  -2.5 2.10e-01    -  5.36e-01 7.46e-01f  1
   4  1.7163552e+02 4.44e-16 4.09e-01  -2.5 1.45e-01    -  5.01e-01 1.93e-01f  1
   5  1.5576621e+02 4.44e-16 6.49e-01  -2.5 1.69e-01    -  7.58e-01 3.63e-01f  1
   6  1.4181215e+02 4.44e-16 5.15e-01  -2.5 9.71e-02    -  1.00e+00 5.31e-01f  1
   7  1.3071536e+02 4.44e-16 1.50e-02  -2.5 2.59e-02    -  1.00e+00 9.75e-01f  1
   8  1.2826291e+02 4.44e-16 3.21e-01  -3.8 7.56e-02    -  8.91e-01 3.64e-01f  1
   9  1.2617716e+02 4.44e-16 2.63e-01  -3.8 4.37e-02    -  1.00e+00 4.95e-01f  1
iter    objective    inf_pr   inf_du lg(mu)  ||d||  lg(rg) alpha_du alpha_pr  ls
  10  1.2490725e+02 4.44e-16 1.15e-01  -3.8 1.89e-02    -  1.00e+00 6.28e-01f  1
  11  1.2422147e+02 4.44e-16 3.09e-03  -3.8 8.28e-03    -  1.00e+00 9.79e-01f  1
  12  1.2420590e+02 4.44e-16 1.50e-09  -3.8 9.64e-04    -  1.00e+00 1.00e+00f  1
  13  1.2395994e+02 4.44e-16 1.45e-02  -5.7 4.57e-03    -  9.79e-01 7.89e-01f  1
  14  1.2389995e+02 5.55e-16 3.34e-03  -5.7 1.48e-03    -  1.00e+00 9.13e-01f  1
  15  1.2389372e+02 4.44e-16 1.84e-11  -5.7 4.38e-04    -  1.00e+00 1.00e+00f  1
  16  1.2388996e+02 5.55e-16 2.18e-04  -8.6 2.36e-04    -  9.96e-01 9.73e-01f  1
  17  1.2388983e+02 4.44e-16 1.20e-04  -8.6 9.16e-05    -  1.00e+00 9.76e-01f  1
  18  1.2388983e+02 5.55e-16 6.70e-14  -8.6 3.74e-05    -  1.00e+00 1.00e+00f  1
  19  1.2388983e+02 5.55e-16 8.12e-14  -8.6 1.47e-05    -  1.00e+00 1.00e+00h  1
iter    objective    inf_pr   inf_du lg(mu)  ||d||  lg(rg) alpha_du alpha_pr  ls
  20  1.2388983e+02 4.44e-16 8.76e-14  -9.0 6.61e-06    -  1.00e+00 1.00e+00f  1

Number of Iterations....: 20

                                   (scaled)                 (unscaled)
Objective...............:   1.2388982551129021e+02    1.2388982551129021e+02
Dual infeasibility......:   8.7570303922574042e-14    8.7570303922574042e-14
Constraint violation....:   4.4408920985006262e-16    4.4408920985006262e-16
Complementarity.........:   4.3872353348712326e-09    4.3872353348712326e-09
Overall NLP error.......:   4.3872353348712326e-09    4.3872353348712326e-09


Number of objective function evaluations             = 21
Number of objective gradient evaluations             = 21
Number of equality constraint evaluations            = 21
Number of inequality constraint evaluations          = 21
Number of equality constraint Jacobian evaluations   = 21
Number of inequality constraint Jacobian evaluations = 21
Number of Lagrangian Hessian evaluations             = 20
Total CPU secs in IPOPT (w/o function evaluations)   =      0.124
Total CPU secs in NLP function evaluations           =      0.008

EXIT: Optimal Solution Found.

Time elapsed: 0.536322116852